3 
4 
5  12 27 42 57 
6  12 27 42 57 
7  12 27 42 57 
8  12 27 42 57 
9  12 27 41 56 
10  11 26 41 56 
11  11 26 41 56 
12  11 26 41 55 
13  10 25 40 55 
14  10 25 40 57 
15  12 27 42 57 
16  12 27 42 57 
17  12 27 42 57 
18  12 27 42 57 
19  12 27 42 57 
20  12 27 42 57 
21  12 27 42 57 
22  14 29 44 
23  02 
0 
